0 65 84
1 69 97
2 84 95
3 93 95
4 91 96
5 81 99
6 97 99
7 100 101
8 93 101
9 90 102
10 96 101
11 87 95
12 56 93
13 65 89
14 79 85
15 77 86
16 48 84
17 74 78
18 72 75
19 62 78
20 64 75
21 62 75
22 74 74
23 68 72
24 68 69
25 63 70
26 54 67
27 40 67
28 60 64
29 56 60
30 57 58
31 58 58
32 57 59
33 55 61
34 44 61
35 34 60
36 52 55
37 51 51
38 51 54
39 46 56
40 53 54
41 37 52
42 36 54
43 48 51
44 21 46
45 38 43
46 40 43
47 37 38
48 20 39
49 34 37
50 29 33
51 18 32
52 30 30
53 19 27
54 22 24
55 9 22
56 20 20
57 21 21
58 22 23
59 8 23
60 13 19
61 11 12
62 9 13
63 7 7
64 7 7
65 3 6
66 1 5
67 3 6
68 4 5
69 1 4
70 2 2
71 2 2
72 1 1

